10
739 765 436  623
851 975 666  626
739 531 649  581
438 975 686  276
430 500 978  148
463 686 619  580
506 760 878  530
992 867 770  656
570 859 589  935
670 591 832  183
15
69 174 642  215 208
212 733 98  49 142
765 628 611  33 175
142 198 496  198 15
776 407 214  84 148
335 42 553  285 201
488 479 65  185 214
92 302 446  103 198
51 276 728  227 250
419 530 276  27 142
246 290 250  154 31
372 57 61  241 212
735 168 529  23 65
771 233 93  183 299
500 252 131  298 144
